
  22    4
  10   10   10   10

   0   0   0   0   0   3 2 3 6 
   3  10  10  10  10   3 11 8 5 
   7  10  10  10  10   2 5 4 
   1  10  10  10  10   6 15 14 13 11 10 9 
   7  10  10  10  10   2 14 7 
  10  10  10  10  10   5 15 14 11 10 9 
   4  10  10  10  10   4 15 13 10 9 
   9  10  10  10  10   2 13 9 
  10  10  10  10  10   2 16 12 
   2  10  10  10  10   2 16 12 
   7  10  10  10  10   2 16 12 
   6  10  10  10  10   4 21 20 19 17 
   5  10  10  10  10   3 21 19 16 
   7  10  10  10  10   3 20 19 16 
   9  10  10  10  10   3 20 19 17 
   4  10  10  10  10   1 17 
   6  10  10  10  10   1 18 
   5  10  10  10  10   1 22
   6  10  10  10  10   1 22
   5  10  10  10  10   1 22
   4  10  10  10  10   1 22
   0   0   0   0   0   0 
